RLW07
Position Depot: Random
Horizon for Depot: Large
Position of customers: Random
Distribution of the demand: Large
Width of time windows: Wide
Distribution of the service: Small

VEHICLE 
NUMBER 	 CAPACITY 
 12 	 	 220 
 
CUSTOMER
CUST NO. 	 XCOORD.  	 YCOORD. 	 DEMAND 	 READY TIME 	 DUE DATE 	 SERVICE TIME 
 0 	 	 580 	 	 286 	 	 0 	 	 0 	 	 3217 	 	 0 
  1 	 	 799 	 	 738 	 	 80 	 	 168 	 	 552 	 	 71 
  2 	 	 950 	 	 146 	 	 34 	 	 879 	 	 1208 	 	 72 
  3 	 	 393 	 	 285 	 	 73 	 	 1812 	 	 2018 	 	 59 
  4 	 	 976 	 	 133 	 	 33 	 	 775 	 	 1075 	 	 54 
  5 	 	 820 	 	 593 	 	 69 	 	 2382 	 	 2683 	 	 84 
  6 	 	 439 	 	 733 	 	 31 	 	 2229 	 	 2500 	 	 85 
  7 	 	 471 	 	 400 	 	 92 	 	 681 	 	 923 	 	 90 
  8 	 	 957 	 	 79 	 	 20 	 	 2618 	 	 2847 	 	 51 
  9 	 	 764 	 	 415 	 	 49 	 	 1574 	 	 1844 	 	 87 
  10 	 	 611 	 	 132 	 	 87 	 	 1965 	 	 2444 	 	 54 
  11 	 	 949 	 	 247 	 	 49 	 	 398 	 	 744 	 	 62 
  12 	 	 677 	 	 736 	 	 51 	 	 1315 	 	 1606 	 	 64 
  13 	 	 304 	 	 726 	 	 19 	 	 1198 	 	 1649 	 	 84 
  14 	 	 298 	 	 90 	 	 66 	 	 1071 	 	 1377 	 	 95 
  15 	 	 474 	 	 22 	 	 38 	 	 2422 	 	 2674 	 	 89 
  16 	 	 381 	 	 772 	 	 57 	 	 929 	 	 1158 	 	 53 
  17 	 	 848 	 	 800 	 	 41 	 	 520 	 	 787 	 	 90 
  18 	 	 841 	 	 105 	 	 15 	 	 1532 	 	 2032 	 	 65 
  19 	 	 762 	 	 212 	 	 65 	 	 1877 	 	 2280 	 	 57 
  20 	 	 934 	 	 927 	 	 91 	 	 671 	 	 1067 	 	 92 
  21 	 	 945 	 	 529 	 	 18 	 	 2685 	 	 3181 	 	 66 
  22 	 	 742 	 	 3 	 	 92 	 	 343 	 	 646 	 	 98 
  23 	 	 576 	 	 387 	 	 85 	 	 1734 	 	 2213 	 	 89 
  24 	 	 236 	 	 274 	 	 5 	 	 2472 	 	 2757 	 	 92 
  25 	 	 686 	 	 943 	 	 71 	 	 1899 	 	 2218 	 	 76 
  26 	 	 990 	 	 280 	 	 99 	 	 2502 	 	 2917 	 	 75 
  27 	 	 278 	 	 505 	 	 13 	 	 2608 	 	 2874 	 	 61 
  28 	 	 572 	 	 16 	 	 59 	 	 2976 	 	 3198 	 	 81 
  29 	 	 219 	 	 403 	 	 94 	 	 2020 	 	 2392 	 	 65 
  30 	 	 96 	 	 78 	 	 87 	 	 2945 	 	 3166 	 	 77 
  31 	 	 853 	 	 452 	 	 25 	 	 480 	 	 937 	 	 62 
  32 	 	 867 	 	 521 	 	 50 	 	 1945 	 	 2329 	 	 62 
  33 	 	 238 	 	 368 	 	 85 	 	 2283 	 	 2516 	 	 71 
  34 	 	 927 	 	 53 	 	 59 	 	 169 	 	 459 	 	 59 
  35 	 	 874 	 	 928 	 	 37 	 	 1810 	 	 2032 	 	 87 
  36 	 	 513 	 	 66 	 	 73 	 	 1499 	 	 1746 	 	 75 
  37 	 	 815 	 	 524 	 	 74 	 	 2469 	 	 2823 	 	 75 
  38 	 	 274 	 	 927 	 	 46 	 	 1814 	 	 2039 	 	 85 
  39 	 	 970 	 	 931 	 	 62 	 	 411 	 	 829 	 	 69 
  40 	 	 602 	 	 766 	 	 41 	 	 369 	 	 853 	 	 67 
  41 	 	 67 	 	 885 	 	 78 	 	 2833 	 	 3217 	 	 76 
  42 	 	 400 	 	 532 	 	 4 	 	 2108 	 	 2605 	 	 57 
  43 	 	 37 	 	 587 	 	 68 	 	 431 	 	 682 	 	 71 
  44 	 	 344 	 	 955 	 	 48 	 	 2735 	 	 3217 	 	 52 
  45 	 	 652 	 	 379 	 	 75 	 	 79 	 	 527 	 	 90 
  46 	 	 85 	 	 867 	 	 70 	 	 1641 	 	 2012 	 	 82 
  47 	 	 941 	 	 829 	 	 70 	 	 435 	 	 717 	 	 70 
  48 	 	 369 	 	 219 	 	 19 	 	 2238 	 	 2513 	 	 87 
  49 	 	 110 	 	 413 	 	 41 	 	 1875 	 	 2290 	 	 73 
  50 	 	 349 	 	 872 	 	 34 	 	 2299 	 	 2687 	 	 52 
 